TC_ILP/horner_bezier_surf_dfg__12_1.5.lp
Minimize
M1 + M2
Subject To
x0,10 + x0,11 + x0,12 + x0,13 + x0,14 + x0,15 = 1
x1,9 + x1,10 + x1,11 + x1,12 + x1,13 + x1,14 = 1
x2,7 + x2,8 + x2,9 + x2,10 + x2,11 + x2,12 = 1
x3,6 + x3,7 + x3,8 + x3,9 + x3,10 + x3,11 = 1
x4,5 + x4,6 + x4,7 + x4,8 + x4,9 + x4,10 = 1
x5,3 + x5,4 + x5,5 + x5,6 + x5,7 + x5,8 = 1
x6,5 + x6,6 + x6,7 + x6,8 + x6,9 + x6,10 + x6,11 + x6,12 + x6,13 + x6,14 + x6,15 = 1
x7,7 + x7,8 + x7,9 + x7,10 + x7,11 + x7,12 + x7,13 + x7,14 + x7,15 = 1
x8,6 + x8,7 + x8,8 + x8,9 + x8,10 + x8,11 + x8,12 + x8,13 + x8,14 = 1
x9,5 + x9,6 + x9,7 + x9,8 + x9,9 + x9,10 + x9,11 + x9,12 + x9,13 = 1
x10,3 + x10,4 + x10,5 + x10,6 + x10,7 + x10,8 + x10,9 + x10,10 + x10,11 = 1
x11,2 + x11,3 + x11,4 + x11,5 + x11,6 + x11,7 = 1
x12,6 + x12,7 + x12,8 + x12,9 + x12,10 + x12,11 + x12,12 + x12,13 + x12,14 + x12,15 = 1
x13,5 + x13,6 + x13,7 + x13,8 + x13,9 + x13,10 + x13,11 + x13,12 + x13,13 + x13,14 = 1
x14,3 + x14,4 + x14,5 + x14,6 + x14,7 + x14,8 + x14,9 + x14,10 + x14,11 + x14,12 = 1
x15,2 + x15,3 + x15,4 + x15,5 + x15,6 + x15,7 + x15,8 + x15,9 + x15,10 + x15,11 = 1
x16,1 + x16,2 + x16,3 + x16,4 + x16,5 + x16,6 = 1
x17,1 + x17,2 + x17,3 + x17,4 + x17,5 + x17,6 + x17,7 + x17,8 + x17,9 + x17,10 + x17,11 + x17,12 + x17,13 + x17,14 + x17,15 + x17,16 = 1
x16,1 + x17,1 - M2 <= 0
x11,2 + x15,2 + x16,2 + x17,2 - M2 <= 0
x11,3 + x15,3 + x16,3 + x17,3 - M2 <= 0
x5,3 + x5,2 + x10,3 + x10,2 + x14,3 + x14,2 - M1 <= 0
x11,4 + x15,4 + x16,4 + x17,4 - M2 <= 0
x5,4 + x5,3 + x10,4 + x10,3 + x14,4 + x14,3 - M1 <= 0
x4,5 + x9,5 + x11,5 + x13,5 + x15,5 + x16,5 + x17,5 - M2 <= 0
x5,5 + x5,4 + x6,5 + x6,4 + x10,5 + x10,4 + x14,5 + x14,4 - M1 <= 0
x3,6 + x4,6 + x8,6 + x9,6 + x11,6 + x13,6 + x15,6 + x16,6 + x17,6 - M2 <= 0
x5,6 + x5,5 + x6,6 + x6,5 + x10,6 + x10,5 + x12,6 + x12,5 + x14,6 + x14,5 - M1 <= 0
x3,7 + x4,7 + x8,7 + x9,7 + x11,7 + x13,7 + x15,7 + x17,7 - M2 <= 0
x2,7 + x2,6 + x5,7 + x5,6 + x6,7 + x6,6 + x7,7 + x7,6 + x10,7 + x10,6 + x12,7 + x12,6 + x14,7 + x14,6 - M1 <= 0
x3,8 + x4,8 + x8,8 + x9,8 + x13,8 + x15,8 + x17,8 - M2 <= 0
x2,8 + x2,7 + x5,8 + x5,7 + x6,8 + x6,7 + x7,8 + x7,7 + x10,8 + x10,7 + x12,8 + x12,7 + x14,8 + x14,7 - M1 <= 0
x1,9 + x3,9 + x4,9 + x8,9 + x9,9 + x13,9 + x15,9 + x17,9 - M2 <= 0
x2,9 + x2,8 + x5,9 + x5,8 + x6,9 + x6,8 + x7,9 + x7,8 + x10,9 + x10,8 + x12,9 + x12,8 + x14,9 + x14,8 - M1 <= 0
x1,10 + x3,10 + x4,10 + x8,10 + x9,10 + x13,10 + x15,10 + x17,10 - M2 <= 0
x0,10 + x0,9 + x2,10 + x2,9 + x6,10 + x6,9 + x7,10 + x7,9 + x10,10 + x10,9 + x12,10 + x12,9 + x14,10 + x14,9 - M1 <= 0
x1,11 + x3,11 + x8,11 + x9,11 + x13,11 + x15,11 + x17,11 - M2 <= 0
x0,11 + x0,10 + x2,11 + x2,10 + x6,11 + x6,10 + x7,11 + x7,10 + x10,11 + x10,10 + x12,11 + x12,10 + x14,11 + x14,10 - M1 <= 0
x1,12 + x8,12 + x9,12 + x13,12 + x17,12 - M2 <= 0
x0,12 + x0,11 + x2,12 + x2,11 + x6,12 + x6,11 + x7,12 + x7,11 + x10,12 + x10,11 + x12,12 + x12,11 + x14,12 + x14,11 - M1 <= 0
x1,13 + x8,13 + x9,13 + x13,13 + x17,13 - M2 <= 0
x0,13 + x0,12 + x2,13 + x2,12 + x6,13 + x6,12 + x7,13 + x7,12 + x12,13 + x12,12 + x14,13 + x14,12 - M1 <= 0
x1,14 + x8,14 + x13,14 + x17,14 - M2 <= 0
x0,14 + x0,13 + x6,14 + x6,13 + x7,14 + x7,13 + x12,14 + x12,13 - M1 <= 0
x0,15 + x0,14 + x6,15 + x6,14 + x7,15 + x7,14 + x12,15 + x12,14 - M1 <= 0
x0,16 + x0,15 + x6,16 + x6,15 + x7,16 + x7,15 + x12,16 + x12,15 - M1 <= 0
9 x1,9 + 10 x1,10 + 11 x1,11 + 12 x1,12 + 13 x1,13 + 14 x1,14 - 10 x0,10 - 11 x0,11 - 12 x0,12 - 13 x0,13 - 14 x0,14 - 15 x0,15 <= -1
7 x2,7 + 8 x2,8 + 9 x2,9 + 10 x2,10 + 11 x2,11 + 12 x2,12 - 9 x1,9 - 10 x1,10 - 11 x1,11 - 12 x1,12 - 13 x1,13 - 14 x1,14 <= -2
6 x3,6 + 7 x3,7 + 8 x3,8 + 9 x3,9 + 10 x3,10 + 11 x3,11 - 7 x2,7 - 8 x2,8 - 9 x2,9 - 10 x2,10 - 11 x2,11 - 12 x2,12 <= -1
5 x4,5 + 6 x4,6 + 7 x4,7 + 8 x4,8 + 9 x4,9 + 10 x4,10 - 6 x3,6 - 7 x3,7 - 8 x3,8 - 9 x3,9 - 10 x3,10 - 11 x3,11 <= -1
3 x5,3 + 4 x5,4 + 5 x5,5 + 6 x5,6 + 7 x5,7 + 8 x5,8 - 5 x4,5 - 6 x4,6 - 7 x4,7 - 8 x4,8 - 9 x4,9 - 10 x4,10 <= -2
6 x8,6 + 7 x8,7 + 8 x8,8 + 9 x8,9 + 10 x8,10 + 11 x8,11 + 12 x8,12 + 13 x8,13 + 14 x8,14 - 7 x7,7 - 8 x7,8 - 9 x7,9 - 10 x7,10 - 11 x7,11 - 12 x7,12 - 13 x7,13 - 14 x7,14 - 15 x7,15 <= -1
5 x9,5 + 6 x9,6 + 7 x9,7 + 8 x9,8 + 9 x9,9 + 10 x9,10 + 11 x9,11 + 12 x9,12 + 13 x9,13 - 6 x8,6 - 7 x8,7 - 8 x8,8 - 9 x8,9 - 10 x8,10 - 11 x8,11 - 12 x8,12 - 13 x8,13 - 14 x8,14 <= -1
3 x10,3 + 4 x10,4 + 5 x10,5 + 6 x10,6 + 7 x10,7 + 8 x10,8 + 9 x10,9 + 10 x10,10 + 11 x10,11 - 5 x6,5 - 6 x6,6 - 7 x6,7 - 8 x6,8 - 9 x6,9 - 10 x6,10 - 11 x6,11 - 12 x6,12 - 13 x6,13 - 14 x6,14 - 15 x6,15 <= -2
3 x10,3 + 4 x10,4 + 5 x10,5 + 6 x10,6 + 7 x10,7 + 8 x10,8 + 9 x10,9 + 10 x10,10 + 11 x10,11 - 5 x9,5 - 6 x9,6 - 7 x9,7 - 8 x9,8 - 9 x9,9 - 10 x9,10 - 11 x9,11 - 12 x9,12 - 13 x9,13 <= -2
2 x11,2 + 3 x11,3 + 4 x11,4 + 5 x11,5 + 6 x11,6 + 7 x11,7 - 3 x5,3 - 4 x5,4 - 5 x5,5 - 6 x5,6 - 7 x5,7 - 8 x5,8 <= -1
2 x11,2 + 3 x11,3 + 4 x11,4 + 5 x11,5 + 6 x11,6 + 7 x11,7 - 3 x10,3 - 4 x10,4 - 5 x10,5 - 6 x10,6 - 7 x10,7 - 8 x10,8 - 9 x10,9 - 10 x10,10 - 11 x10,11 <= -1
5 x13,5 + 6 x13,6 + 7 x13,7 + 8 x13,8 + 9 x13,9 + 10 x13,10 + 11 x13,11 + 12 x13,12 + 13 x13,13 + 14 x13,14 - 6 x12,6 - 7 x12,7 - 8 x12,8 - 9 x12,9 - 10 x12,10 - 11 x12,11 - 12 x12,12 - 13 x12,13 - 14 x12,14 - 15 x12,15 <= -1
3 x14,3 + 4 x14,4 + 5 x14,5 + 6 x14,6 + 7 x14,7 + 8 x14,8 + 9 x14,9 + 10 x14,10 + 11 x14,11 + 12 x14,12 - 5 x13,5 - 6 x13,6 - 7 x13,7 - 8 x13,8 - 9 x13,9 - 10 x13,10 - 11 x13,11 - 12 x13,12 - 13 x13,13 - 14 x13,14 <= -2
2 x15,2 + 3 x15,3 + 4 x15,4 + 5 x15,5 + 6 x15,6 + 7 x15,7 + 8 x15,8 + 9 x15,9 + 10 x15,10 + 11 x15,11 - 3 x14,3 - 4 x14,4 - 5 x14,5 - 6 x14,6 - 7 x14,7 - 8 x14,8 - 9 x14,9 - 10 x14,10 - 11 x14,11 - 12 x14,12 <= -1
1 x16,1 + 2 x16,2 + 3 x16,3 + 4 x16,4 + 5 x16,5 + 6 x16,6 - 2 x11,2 - 3 x11,3 - 4 x11,4 - 5 x11,5 - 6 x11,6 - 7 x11,7 <= -1
1 x16,1 + 2 x16,2 + 3 x16,3 + 4 x16,4 + 5 x16,5 + 6 x16,6 - 2 x15,2 - 3 x15,3 - 4 x15,4 - 5 x15,5 - 6 x15,6 - 7 x15,7 - 8 x15,8 - 9 x15,9 - 10 x15,10 - 11 x15,11 <= -1
Bounds
0 <= x0,10 <= 1
0 <= x0,11 <= 1
0 <= x0,12 <= 1
0 <= x0,13 <= 1
0 <= x0,14 <= 1
0 <= x0,15 <= 1
0 <= x1,9 <= 1
0 <= x1,10 <= 1
0 <= x1,11 <= 1
0 <= x1,12 <= 1
0 <= x1,13 <= 1
0 <= x1,14 <= 1
0 <= x2,7 <= 1
0 <= x2,8 <= 1
0 <= x2,9 <= 1
0 <= x2,10 <= 1
0 <= x2,11 <= 1
0 <= x2,12 <= 1
0 <= x3,6 <= 1
0 <= x3,7 <= 1
0 <= x3,8 <= 1
0 <= x3,9 <= 1
0 <= x3,10 <= 1
0 <= x3,11 <= 1
0 <= x4,5 <= 1
0 <= x4,6 <= 1
0 <= x4,7 <= 1
0 <= x4,8 <= 1
0 <= x4,9 <= 1
0 <= x4,10 <= 1
0 <= x5,3 <= 1
0 <= x5,4 <= 1
0 <= x5,5 <= 1
0 <= x5,6 <= 1
0 <= x5,7 <= 1
0 <= x5,8 <= 1
0 <= x6,5 <= 1
0 <= x6,6 <= 1
0 <= x6,7 <= 1
0 <= x6,8 <= 1
0 <= x6,9 <= 1
0 <= x6,10 <= 1
0 <= x6,11 <= 1
0 <= x6,12 <= 1
0 <= x6,13 <= 1
0 <= x6,14 <= 1
0 <= x6,15 <= 1
0 <= x7,7 <= 1
0 <= x7,8 <= 1
0 <= x7,9 <= 1
0 <= x7,10 <= 1
0 <= x7,11 <= 1
0 <= x7,12 <= 1
0 <= x7,13 <= 1
0 <= x7,14 <= 1
0 <= x7,15 <= 1
0 <= x8,6 <= 1
0 <= x8,7 <= 1
0 <= x8,8 <= 1
0 <= x8,9 <= 1
0 <= x8,10 <= 1
0 <= x8,11 <= 1
0 <= x8,12 <= 1
0 <= x8,13 <= 1
0 <= x8,14 <= 1
0 <= x9,5 <= 1
0 <= x9,6 <= 1
0 <= x9,7 <= 1
0 <= x9,8 <= 1
0 <= x9,9 <= 1
0 <= x9,10 <= 1
0 <= x9,11 <= 1
0 <= x9,12 <= 1
0 <= x9,13 <= 1
0 <= x10,3 <= 1
0 <= x10,4 <= 1
0 <= x10,5 <= 1
0 <= x10,6 <= 1
0 <= x10,7 <= 1
0 <= x10,8 <= 1
0 <= x10,9 <= 1
0 <= x10,10 <= 1
0 <= x10,11 <= 1
0 <= x11,2 <= 1
0 <= x11,3 <= 1
0 <= x11,4 <= 1
0 <= x11,5 <= 1
0 <= x11,6 <= 1
0 <= x11,7 <= 1
0 <= x12,6 <= 1
0 <= x12,7 <= 1
0 <= x12,8 <= 1
0 <= x12,9 <= 1
0 <= x12,10 <= 1
0 <= x12,11 <= 1
0 <= x12,12 <= 1
0 <= x12,13 <= 1
0 <= x12,14 <= 1
0 <= x12,15 <= 1
0 <= x13,5 <= 1
0 <= x13,6 <= 1
0 <= x13,7 <= 1
0 <= x13,8 <= 1
0 <= x13,9 <= 1
0 <= x13,10 <= 1
0 <= x13,11 <= 1
0 <= x13,12 <= 1
0 <= x13,13 <= 1
0 <= x13,14 <= 1
0 <= x14,3 <= 1
0 <= x14,4 <= 1
0 <= x14,5 <= 1
0 <= x14,6 <= 1
0 <= x14,7 <= 1
0 <= x14,8 <= 1
0 <= x14,9 <= 1
0 <= x14,10 <= 1
0 <= x14,11 <= 1
0 <= x14,12 <= 1
0 <= x15,2 <= 1
0 <= x15,3 <= 1
0 <= x15,4 <= 1
0 <= x15,5 <= 1
0 <= x15,6 <= 1
0 <= x15,7 <= 1
0 <= x15,8 <= 1
0 <= x15,9 <= 1
0 <= x15,10 <= 1
0 <= x15,11 <= 1
0 <= x16,1 <= 1
0 <= x16,2 <= 1
0 <= x16,3 <= 1
0 <= x16,4 <= 1
0 <= x16,5 <= 1
0 <= x16,6 <= 1
0 <= x17,1 <= 1
0 <= x17,2 <= 1
0 <= x17,3 <= 1
0 <= x17,4 <= 1
0 <= x17,5 <= 1
0 <= x17,6 <= 1
0 <= x17,7 <= 1
0 <= x17,8 <= 1
0 <= x17,9 <= 1
0 <= x17,10 <= 1
0 <= x17,11 <= 1
0 <= x17,12 <= 1
0 <= x17,13 <= 1
0 <= x17,14 <= 1
0 <= x17,15 <= 1
0 <= x17,16 <= 1
M1 >= 1
M2 >= 1
Generals
x0,10
x0,11
x0,12
x0,13
x0,14
x0,15
x1,9
x1,10
x1,11
x1,12
x1,13
x1,14
x2,7
x2,8
x2,9
x2,10
x2,11
x2,12
x3,6
x3,7
x3,8
x3,9
x3,10
x3,11
x4,5
x4,6
x4,7
x4,8
x4,9
x4,10
x5,3
x5,4
x5,5
x5,6
x5,7
x5,8
x6,5
x6,6
x6,7
x6,8
x6,9
x6,10
x6,11
x6,12
x6,13
x6,14
x6,15
x7,7
x7,8
x7,9
x7,10
x7,11
x7,12
x7,13
x7,14
x7,15
x8,6
x8,7
x8,8
x8,9
x8,10
x8,11
x8,12
x8,13
x8,14
x9,5
x9,6
x9,7
x9,8
x9,9
x9,10
x9,11
x9,12
x9,13
x10,3
x10,4
x10,5
x10,6
x10,7
x10,8
x10,9
x10,10
x10,11
x11,2
x11,3
x11,4
x11,5
x11,6
x11,7
x12,6
x12,7
x12,8
x12,9
x12,10
x12,11
x12,12
x12,13
x12,14
x12,15
x13,5
x13,6
x13,7
x13,8
x13,9
x13,10
x13,11
x13,12
x13,13
x13,14
x14,3
x14,4
x14,5
x14,6
x14,7
x14,8
x14,9
x14,10
x14,11
x14,12
x15,2
x15,3
x15,4
x15,5
x15,6
x15,7
x15,8
x15,9
x15,10
x15,11
x16,1
x16,2
x16,3
x16,4
x16,5
x16,6
x17,1
x17,2
x17,3
x17,4
x17,5
x17,6
x17,7
x17,8
x17,9
x17,10
x17,11
x17,12
x17,13
x17,14
x17,15
x17,16
M1
M2
End
